tsp_instances/TSP20/instance38.tsp
NODE_COORD_SECTION
0 70 28
1 73 75
2 182 104
3 19 54
4 142 197
5 114 75
6 127 54
7 199 131
8 172 82
9 180 31
10 170 75
11 176 96
12 16 63
13 91 54
14 106 143
15 197 16
16 136 86
17 53 90
18 135 77
19 15 57
