tsp_instances/TSP20/instance38.opt.tour
TOUR_SECTION
1
4
20
13
18
2
15
5
8
3
12
9
11
16
10
7
19
17
6
14
-1